(declare-datatype Nat ((zero) (succ (p Nat))))
(define-fun-rec
  leq
  ((x Nat) (y Nat)) Bool
  (match x
    ((zero true)
     ((succ z)
      (match y
        ((zero false)
         ((succ x2) (leq z x2))))))))
(prove
  (forall ((x Nat) (y Nat)) (=> (leq x y) (=> (leq y x) (= x y)))))
